# Objective value = 5
x0,1_4 1
x0,1_5 0
x0,1_6 0
x0,1_9 0
x0,1_10 0
x0,1_11 0
x0,1_15 0
x0,1_16 0
x0,1_21 0
x0,1_25 0
x0,2_4 0
x0,2_5 0
x0,2_6 0
x0,2_9 1
x0,2_10 0
x0,2_11 0
x0,2_15 0
x0,2_16 0
x0,2_21 0
x0,2_25 0
x0,3_4 0
x0,3_5 0
x0,3_6 0
x0,3_9 0
x0,3_10 0
x0,3_11 0
x0,3_15 1
x0,3_16 0
x0,3_21 0
x0,3_25 0
x0,4_4 0
x0,4_5 0
x0,4_6 0
x0,4_9 0
x0,4_10 0
x0,4_11 0
x0,4_15 0
x0,4_16 0
x0,4_21 0
x0,4_25 1
x0,5_4 0
x0,5_5 0
x0,5_6 0
x0,5_9 0
x0,5_10 0
x0,5_11 0
x0,5_15 0
x0,5_16 0
x0,5_21 0
x0,5_25 0
x0,6_4 0
x0,6_5 0
x0,6_6 0
x0,6_9 0
x0,6_10 0
x0,6_11 0
x0,6_15 0
x0,6_16 0
x0,6_21 0
x0,6_25 0
x0,7_4 0
x0,7_5 0
x0,7_6 0
x0,7_9 0
x0,7_10 0
x0,7_11 0
x0,7_15 0
x0,7_16 0
x0,7_21 0
x0,7_25 0
x0,8_4 0
x0,8_5 0
x0,8_6 0
x0,8_9 0
x0,8_10 0
x0,8_11 0
x0,8_15 0
x0,8_16 0
x0,8_21 0
x0,8_25 0
x0,9_4 0
x0,9_5 0
x0,9_6 0
x0,9_9 0
x0,9_10 0
x0,9_11 0
x0,9_15 0
x0,9_16 0
x0,9_21 0
x0,9_25 0
x0,10_4 0
x0,10_5 0
x0,10_6 0
x0,10_9 0
x0,10_10 0
x0,10_11 0
x0,10_15 0
x0,10_16 0
x0,10_21 0
x0,10_25 0
x1,2_4 0
x1,2_5 1
x1,2_6 0
x1,2_9 0
x1,2_10 0
x1,2_11 0
x1,2_15 0
x1,2_16 0
x1,2_21 0
x1,2_25 0
x1,3_4 0
x1,3_5 0
x1,3_6 0
x1,3_9 0
x1,3_10 0
x1,3_11 1
x1,3_15 0
x1,3_16 0
x1,3_21 0
x1,3_25 0
x1,4_4 0
x1,4_5 0
x1,4_6 0
x1,4_9 0
x1,4_10 0
x1,4_11 0
x1,4_15 0
x1,4_16 0
x1,4_21 1
x1,4_25 0
x1,5_4 0
x1,5_5 0
x1,5_6 0
x1,5_9 0
x1,5_10 0
x1,5_11 0
x1,5_15 0
x1,5_16 0
x1,5_21 0
x1,5_25 0
x1,6_4 0
x1,6_5 0
x1,6_6 0
x1,6_9 0
x1,6_10 0
x1,6_11 0
x1,6_15 0
x1,6_16 0
x1,6_21 0
x1,6_25 0
x1,7_4 0
x1,7_5 0
x1,7_6 0
x1,7_9 0
x1,7_10 0
x1,7_11 0
x1,7_15 0
x1,7_16 0
x1,7_21 0
x1,7_25 0
x1,8_4 0
x1,8_5 0
x1,8_6 0
x1,8_9 0
x1,8_10 0
x1,8_11 0
x1,8_15 0
x1,8_16 0
x1,8_21 0
x1,8_25 0
x1,9_4 0
x1,9_5 0
x1,9_6 0
x1,9_9 0
x1,9_10 0
x1,9_11 0
x1,9_15 0
x1,9_16 0
x1,9_21 0
x1,9_25 0
x1,10_4 0
x1,10_5 0
x1,10_6 0
x1,10_9 0
x1,10_10 0
x1,10_11 0
x1,10_15 0
x1,10_16 0
x1,10_21 0
x1,10_25 0
x2,3_4 0
x2,3_5 0
x2,3_6 1
x2,3_9 0
x2,3_10 0
x2,3_11 0
x2,3_15 0
x2,3_16 0
x2,3_21 0
x2,3_25 0
x2,4_4 0
x2,4_5 0
x2,4_6 0
x2,4_9 0
x2,4_10 0
x2,4_11 0
x2,4_15 0
x2,4_16 1
x2,4_21 0
x2,4_25 0
x2,5_4 0
x2,5_5 0
x2,5_6 0
x2,5_9 0
x2,5_10 0
x2,5_11 0
x2,5_15 0
x2,5_16 0
x2,5_21 0
x2,5_25 0
x2,6_4 0
x2,6_5 0
x2,6_6 0
x2,6_9 0
x2,6_10 0
x2,6_11 0
x2,6_15 0
x2,6_16 0
x2,6_21 0
x2,6_25 0
x2,7_4 0
x2,7_5 0
x2,7_6 0
x2,7_9 0
x2,7_10 0
x2,7_11 0
x2,7_15 0
x2,7_16 0
x2,7_21 0
x2,7_25 0
x2,8_4 0
x2,8_5 0
x2,8_6 0
x2,8_9 0
x2,8_10 0
x2,8_11 0
x2,8_15 0
x2,8_16 0
x2,8_21 0
x2,8_25 0
x2,9_4 0
x2,9_5 0
x2,9_6 0
x2,9_9 0
x2,9_10 0
x2,9_11 0
x2,9_15 0
x2,9_16 0
x2,9_21 0
x2,9_25 0
x2,10_4 0
x2,10_5 0
x2,10_6 0
x2,10_9 0
x2,10_10 0
x2,10_11 0
x2,10_15 0
x2,10_16 0
x2,10_21 0
x2,10_25 0
x3,4_4 0
x3,4_5 0
x3,4_6 0
x3,4_9 0
x3,4_10 1
x3,4_11 0
x3,4_15 0
x3,4_16 0
x3,4_21 0
x3,4_25 0
x3,5_4 0
x3,5_5 0
x3,5_6 0
x3,5_9 0
x3,5_10 0
x3,5_11 0
x3,5_15 0
x3,5_16 0
x3,5_21 0
x3,5_25 0
x3,6_4 0
x3,6_5 0
x3,6_6 0
x3,6_9 0
x3,6_10 0
x3,6_11 0
x3,6_15 0
x3,6_16 0
x3,6_21 0
x3,6_25 0
x3,7_4 0
x3,7_5 0
x3,7_6 0
x3,7_9 0
x3,7_10 0
x3,7_11 0
x3,7_15 0
x3,7_16 0
x3,7_21 0
x3,7_25 0
x3,8_4 0
x3,8_5 0
x3,8_6 0
x3,8_9 0
x3,8_10 0
x3,8_11 0
x3,8_15 0
x3,8_16 0
x3,8_21 0
x3,8_25 0
x3,9_4 0
x3,9_5 0
x3,9_6 0
x3,9_9 0
x3,9_10 0
x3,9_11 0
x3,9_15 0
x3,9_16 0
x3,9_21 0
x3,9_25 0
x3,10_4 0
x3,10_5 0
x3,10_6 0
x3,10_9 0
x3,10_10 0
x3,10_11 0
x3,10_15 0
x3,10_16 0
x3,10_21 0
x3,10_25 0
x4,5_4 0
x4,5_5 0
x4,5_6 0
x4,5_9 0
x4,5_10 0
x4,5_11 0
x4,5_15 0
x4,5_16 0
x4,5_21 0
x4,5_25 0
x4,6_4 0
x4,6_5 0
x4,6_6 0
x4,6_9 0
x4,6_10 0
x4,6_11 0
x4,6_15 0
x4,6_16 0
x4,6_21 0
x4,6_25 0
x4,7_4 0
x4,7_5 0
x4,7_6 0
x4,7_9 0
x4,7_10 0
x4,7_11 0
x4,7_15 0
x4,7_16 0
x4,7_21 0
x4,7_25 0
x4,8_4 0
x4,8_5 0
x4,8_6 0
x4,8_9 0
x4,8_10 0
x4,8_11 0
x4,8_15 0
x4,8_16 0
x4,8_21 0
x4,8_25 0
x4,9_4 0
x4,9_5 0
x4,9_6 0
x4,9_9 0
x4,9_10 0
x4,9_11 0
x4,9_15 0
x4,9_16 0
x4,9_21 0
x4,9_25 0
x4,10_4 0
x4,10_5 0
x4,10_6 0
x4,10_9 0
x4,10_10 0
x4,10_11 0
x4,10_15 0
x4,10_16 0
x4,10_21 0
x4,10_25 0
x5,6_4 0
x5,6_5 0
x5,6_6 0
x5,6_9 0
x5,6_10 0
x5,6_11 0
x5,6_15 0
x5,6_16 0
x5,6_21 0
x5,6_25 0
x5,7_4 0
x5,7_5 0
x5,7_6 0
x5,7_9 0
x5,7_10 0
x5,7_11 0
x5,7_15 0
x5,7_16 0
x5,7_21 0
x5,7_25 0
x5,8_4 0
x5,8_5 0
x5,8_6 0
x5,8_9 0
x5,8_10 0
x5,8_11 0
x5,8_15 0
x5,8_16 0
x5,8_21 0
x5,8_25 0
x5,9_4 0
x5,9_5 0
x5,9_6 0
x5,9_9 0
x5,9_10 0
x5,9_11 0
x5,9_15 0
x5,9_16 0
x5,9_21 0
x5,9_25 0
x5,10_4 0
x5,10_5 0
x5,10_6 0
x5,10_9 0
x5,10_10 0
x5,10_11 0
x5,10_15 0
x5,10_16 0
x5,10_21 0
x5,10_25 0
x6,7_4 0
x6,7_5 0
x6,7_6 0
x6,7_9 0
x6,7_10 0
x6,7_11 0
x6,7_15 0
x6,7_16 0
x6,7_21 0
x6,7_25 0
x6,8_4 0
x6,8_5 0
x6,8_6 0
x6,8_9 0
x6,8_10 0
x6,8_11 0
x6,8_15 0
x6,8_16 0
x6,8_21 0
x6,8_25 0
x6,9_4 0
x6,9_5 0
x6,9_6 0
x6,9_9 0
x6,9_10 0
x6,9_11 0
x6,9_15 0
x6,9_16 0
x6,9_21 0
x6,9_25 0
x6,10_4 0
x6,10_5 0
x6,10_6 0
x6,10_9 0
x6,10_10 0
x6,10_11 0
x6,10_15 0
x6,10_16 0
x6,10_21 0
x6,10_25 0
x7,8_4 0
x7,8_5 0
x7,8_6 0
x7,8_9 0
x7,8_10 0
x7,8_11 0
x7,8_15 0
x7,8_16 0
x7,8_21 0
x7,8_25 0
x7,9_4 0
x7,9_5 0
x7,9_6 0
x7,9_9 0
x7,9_10 0
x7,9_11 0
x7,9_15 0
x7,9_16 0
x7,9_21 0
x7,9_25 0
x7,10_4 0
x7,10_5 0
x7,10_6 0
x7,10_9 0
x7,10_10 0
x7,10_11 0
x7,10_15 0
x7,10_16 0
x7,10_21 0
x7,10_25 0
x8,9_4 0
x8,9_5 0
x8,9_6 0
x8,9_9 0
x8,9_10 0
x8,9_11 0
x8,9_15 0
x8,9_16 0
x8,9_21 0
x8,9_25 0
x8,10_4 0
x8,10_5 0
x8,10_6 0
x8,10_9 0
x8,10_10 0
x8,10_11 0
x8,10_15 0
x8,10_16 0
x8,10_21 0
x8,10_25 0
x9,10_4 0
x9,10_5 0
x9,10_6 0
x9,10_9 0
x9,10_10 0
x9,10_11 0
x9,10_15 0
x9,10_16 0
x9,10_21 0
x9,10_25 0
z0 1
z1 1
z2 1
z3 1
z4 1
z5 0
z6 0
z7 0
z8 0
z9 0
z10 0
p0 2
p1 6
p2 11
p3 17
p4 27
p5 28
p6 29
p7 30
p8 31
p9 32
p10 33
